100
128
48
11
16
1
11
16
22
27
40
7
1
20
9
5
24
2
3
10
22
18
7
50
18
9
2
11
58
40
13
48
6
15
9
28
10
2
22
40
11
59
6
35
33
41
56
38
3
3
51
10
47
18
47
8
43
64
49
60
58
55
14
54
18
39
41
50
48
61
29
48
19
46
43
16
61
3
62
1
57
44
4
60
12
11
24
39
63
25
3
53
3
62
60
35
10
61
37
2
42
49